100
3004
4
41
37
20
4
0 1
0 2
0 4
0 5
0 6
0 7
0 8
0 9
0 10
0 11
0 12
0 13
0 14
0 15
0 16
0 18
0 21
0 29
0 30
0 31
0 32
0 33
0 35
0 36
0 37
0 38
0 39
0 40
0 42
0 43
0 44
0 45
0 46
0 47
0 50
0 51
0 53
0 55
0 57
0 58
0 59
0 60
0 61
0 62
0 63
0 64
0 66
0 67
0 68
0 70
0 71
0 72
0 73
0 77
0 78
0 82
0 83
0 84
0 85
0 86
0 87
0 88
0 90
0 91
0 92
0 95
0 96
0 97
1 2
1 3
1 4
1 6
1 9
1 10
1 14
1 15
1 18
1 19
1 20
1 21
1 22
1 23
1 24
1 26
1 28
1 29
1 30
1 32
1 34
1 35
1 37
1 38
1 39
1 40
1 41
1 46
1 48
1 49
1 50
1 54
1 56
1 57
1 58
1 59
1 60
1 61
1 63
1 65
1 66
1 68
1 69
1 72
1 73
1 75
1 76
1 78
1 80
1 81
1 82
1 84
1 85
1 88
1 89
1 90
1 97
1 99
2 3
2 6
2 8
2 9
2 10
2 11
2 13
2 14
2 16
2 23
2 24
2 30
2 31
2 35
2 36
2 37
2 38
2 39
2 41
2 42
2 43
2 45
2 46
2 47
2 48
2 49
2 51
2 56
2 57
2 58
2 61
2 62
2 67
2 69
2 70
2 73
2 76
2 81
2 82
2 84
2 86
2 88
2 90
2 91
2 92
2 93
2 94
2 95
3 4
3 5
3 7
3 8
3 9
3 10
3 11
3 13
3 14
3 15
3 16
3 17
3 18
3 20
3 22
3 24
3 25
3 27
3 29
3 30
3 32
3 35
3 36
3 38
3 39
3 40
3 42
3 43
3 44
3 45
3 46
3 47
3 48
3 50
3 51
3 57
3 60
3 62
3 64
3 66
3 67
3 69
3 72
3 73
3 75
3 76
3 77
3 79
3 80
3 81
3 83
3 84
3 86
3 87
3 88
3 89
3 94
3 96
3 99
4 5
4 6
4 8
4 11
4 12
4 13
4 14
4 15
4 16
4 17
4 19
4 21
4 22
4 23
4 26
4 27
4 28
4 29
4 32
4 33
4 34
4 36
4 40
4 41
4 44
4 47
4 48
4 50
4 52
4 55
4 57
4 58
4 62
4 64
4 66
4 68
4 69
4 72
4 76
4 77
4 78
4 79
4 80
4 81
4 82
4 83
4 85
4 86
4 87
4 88
4 89
4 90
4 91
4 93
4 94
4 96
4 98
4 99
5 7
5 8
5 13
5 14
5 15
5 16
5 17
5 19
5 22
5 23
5 24
5 26
5 29
5 31
5 33
5 34
5 37
5 39
5 42
5 43
5 44
5 45
5 48
5 49
5 50
5 51
5 52
5 55
5 57
5 58
5 60
5 61
5 64
5 65
5 66
5 68
5 69
5 70
5 72
5 76
5 78
5 81
5 82
5 83
5 84
5 86
5 87
5 89
5 91
5 93
5 94
5 95
5 97
5 98
5 99
6 7
6 8
6 9
6 10
6 15
6 18
6 19
6 20
6 22
6 24
6 26
6 27
6 28
6 29
6 30
6 31
6 32
6 33
6 35
6 36
6 37
6 38
6 39
6 41
6 42
6 43
6 44
6 45
6 46
6 47
6 51
6 52
6 53
6 56
6 57
6 58
6 59
6 60
6 62
6 64
6 67
6 68
6 69
6 70
6 71
6 72
6 73
6 77
6 80
6 82
6 83
6 85
6 86
6 87
6 88
6 89
6 91
6 92
6 93
6 94
6 95
6 96
7 8
7 9
7 11
7 13
7 14
7 15
7 17
7 20
7 21
7 23
7 25
7 28
7 29
7 33
7 34
7 36
7 37
7 38
7 40
7 43
7 44
7 46
7 47
7 48
7 50
7 51
7 54
7 55
7 57
7 62
7 63
7 65
7 66
7 67
7 68
7 69
7 70
7 71
7 72
7 74
7 75
7 77
7 78
7 79
7 80
7 83
7 87
7 88
7 90
7 94
7 95
7 96
7 97
7 99
8 9
8 10
8 11
8 13
8 14
8 15
8 17
8 18
8 19
8 20
8 21
8 23
8 26
8 27
8 29
8 30
8 31
8 33
8 34
8 35
8 36
8 37
8 38
8 42
8 44
8 46
8 48
8 49
8 50
8 51
8 52
8 54
8 55
8 57
8 58
8 59
8 61
8 62
8 63
8 65
8 67
8 68
8 69
8 70
8 71
8 72
8 74
8 75
8 77
8 79
8 80
8 82
8 84
8 86
8 87
8 88
8 92
8 94
8 95
8 98
9 10
9 11
9 13
9 14
9 15
9 17
9 18
9 19
9 21
9 23
9 27
9 28
9 29
9 30
9 31
9 32
9 34
9 35
9 37
9 38
9 39
9 42
9 43
9 45
9 47
9 48
9 54
9 55
9 57
9 59
9 60
9 61
9 62
9 63
9 65
9 67
9 68
9 69
9 71
9 73
9 74
9 75
9 77
9 79
9 81
9 82
9 84
9 85
9 86
9 87
9 88
9 90
9 92
9 93
9 97
9 98
9 99
10 11
10 12
10 13
10 16
10 17
10 18
10 19
10 21
10 22
10 23
10 24
10 25
10 29
10 30
10 32
10 34
10 36
10 37
10 38
10 41
10 42
10 43
10 44
10 45
10 46
10 48
10 52
10 55
10 56
10 57
10 58
10 59
10 60
10 61
10 63
10 64
10 65
10 69
10 72
10 73
10 74
10 75
10 76
10 78
10 81
10 82
10 84
10 85
10 86
10 88
10 91
10 93
10 94
10 97
11 12
11 13
11 14
11 15
11 17
11 18
11 19
11 22
11 23
11 24
11 25
11 26
11 27
11 32
11 33
11 35
11 37
11 38
11 39
11 40
11 41
11 42
11 46
11 49
11 51
11 53
11 55
11 56
11 58
11 59
11 62
11 63
11 66
11 67
11 69
11 70
11 71
11 73
11 74
11 75
11 76
11 77
11 81
11 82
11 83
11 84
11 86
11 87
11 88
11 89
11 90
11 91
11 92
11 94
11 95
11 96
11 98
11 99
12 17
12 18
12 22
12 24
12 25
12 28
12 30
12 31
12 32
12 34
12 35
12 36
12 37
12 38
12 40
12 43
12 45
12 46
12 47
12 48
12 49
12 50
12 51
12 52
12 54
12 56
12 57
12 60
12 61
12 62
12 63
12 65
12 67
12 70
12 73
12 74
12 75
12 76
12 79
12 81
12 82
12 83
12 84
12 88
12 89
12 93
12 95
12 96
12 97
12 98
12 99
13 15
13 16
13 17
13 18
13 19
13 20
13 22
13 25
13 28
13 29
13 30
13 31
13 32
13 33
13 34
13 35
13 36
13 37
13 38
13 41
13 43
13 45
13 47
13 49
13 51
13 52
13 53
13 54
13 55
13 58
13 62
13 63
13 65
13 66
13 67
13 68
13 70
13 73
13 75
13 76
13 77
13 78
13 79
13 80
13 81
13 83
13 84
13 86
13 87
13 89
13 91
13 92
13 95
13 96
13 99
14 15
14 16
14 17
14 18
14 20
14 22
14 23
14 24
14 25
14 27
14 28
14 30
14 32
14 33
14 34
14 35
14 36
14 40
14 42
14 43
14 44
14 45
14 46
14 48
14 49
14 52
14 53
14 54
14 55
14 57
14 58
14 59
14 60
14 61
14 63
14 64
14 65
14 66
14 67
14 69
14 70
14 72
14 73
14 75
14 78
14 79
14 80
14 82
14 84
14 85
14 87
14 89
14 90
14 91
14 92
14 93
14 94
14 95
14 96
15 16
15 23
15 24
15 25
15 26
15 29
15 30
15 31
15 32
15 33
15 36
15 37
15 44
15 45
15 46
15 47
15 48
15 49
15 50
15 52
15 53
15 54
15 56
15 57
15 58
15 59
15 64
15 65
15 67
15 68
15 72
15 73
15 74
15 75
15 76
15 77
15 79
15 80
15 81
15 82
15 83
15 84
15 85
15 86
15 87
15 89
15 90
15 91
15 92
15 94
15 95
15 96
15 98
15 99
16 19
16 20
16 21
16 33
16 34
16 37
16 38
16 39
16 40
16 42
16 43
16 44
16 45
16 46
16 47
16 49
16 50
16 52
16 53
16 57
16 58
16 60
16 61
16 62
16 63
16 65
16 68
16 69
16 71
16 72
16 74
16 75
16 77
16 80
16 83
16 86
16 87
16 88
16 90
16 91
16 92
16 93
16 95
16 97
16 98
17 19
17 20
17 24
17 25
17 29
17 30
17 32
17 33
17 34
17 36
17 38
17 41
17 42
17 44
17 45
17 48
17 51
17 52
17 56
17 57
17 58
17 61
17 66
17 67
17 72
17 74
17 75
17 76
17 77
17 79
17 81
17 82
17 84
17 85
17 86
17 87
17 88
17 91
17 93
17 99
18 19
18 20
18 21
18 22
18 23
18 25
18 27
18 28
18 32
18 33
18 34
18 35
18 37
18 39
18 41
18 42
18 43
18 44
18 48
18 50
18 56
18 57
18 58
18 60
18 61
18 62
18 63
18 66
18 68
18 69
18 70
18 75
18 76
18 79
18 81
18 82
18 84
18 86
18 87
18 89
18 91
18 92
18 93
18 94
18 95
18 96
18 99
19 20
19 21
19 23
19 24
19 25
19 27
19 30
19 31
19 33
19 34
19 36
19 37
19 39
19 40
19 41
19 42
19 43
19 44
19 47
19 48
19 49
19 50
19 51
19 53
19 54
19 56
19 57
19 58
19 63
19 64
19 66
19 67
19 68
19 69
19 71
19 72
19 73
19 75
19 76
19 78
19 79
19 82
19 83
19 84
19 85
19 88
19 89
19 92
19 94
19 96
19 97
19 98
20 21
20 22
20 25
20 26
20 27
20 28
20 29
20 30
20 32
20 33
20 34
20 35
20 36
20 37
20 38
20 39
20 40
20 42
20 43
20 44
20 47
20 48
20 49
20 50
20 51
20 52
20 53
20 55
20 57
20 59
20 60
20 61
20 62
20 63
20 64
20 67
20 68
20 71
20 74
20 77
20 78
20 80
20 82
20 84
20 86
20 87
20 88
20 89
20 90
20 93
20 94
20 95
20 96
20 97
20 98
20 99
21 23
21 24
21 27
21 29
21 30
21 31
21 32
21 33
21 38
21 39
21 40
21 41
21 43
21 46
21 48
21 49
21 50
21 51
21 56
21 58
21 62
21 63
21 64
21 66
21 67
21 68
21 69
21 71
21 72
21 73
21 76
21 79
21 81
21 82
21 83
21 84
21 87
21 88
21 89
21 90
21 91
21 92
21 94
21 95
21 96
21 97
21 98
21 99
22 24
22 25
22 26
22 27
22 28
22 30
22 31
22 32
22 33
22 35
22 36
22 37
22 39
22 40
22 41
22 44
22 46
22 49
22 51
22 52
22 54
22 55
22 56
22 57
22 58
22 64
22 66
22 67
22 70
22 72
22 74
22 75
22 76
22 77
22 78
22 85
22 86
22 90
22 92
22 93
22 94
22 95
22 96
22 99
23 24
23 25
23 26
23 30
23 31
23 32
23 33
23 35
23 36
23 38
23 39
23 40
23 41
23 42
23 45
23 46
23 47
23 48
23 49
23 52
23 55
23 56
23 57
23 59
23 61
23 63
23 65
23 66
23 67
23 69
23 70
23 72
23 73
23 74
23 76
23 77
23 78
23 79
23 84
23 85
23 87
23 91
23 92
23 94
23 95
23 96
23 97
23 98
23 99
24 25
24 27
24 32
24 34
24 35
24 36
24 42
24 43
24 45
24 46
24 48
24 51
24 52
24 53
24 54
24 56
24 57
24 58
24 59
24 60
24 61
24 63
24 64
24 67
24 68
24 69
24 70
24 71
24 73
24 74
24 76
24 77
24 81
24 82
24 84
24 86
24 88
24 89
24 90
24 91
24 92
24 94
24 96
24 97
25 27
25 29
25 30
25 31
25 33
25 38
25 39
25 40
25 41
25 42
25 43
25 44
25 48
25 49
25 50
25 52
25 55
25 56
25 58
25 59
25 62
25 65
25 68
25 69
25 72
25 73
25 74
25 75
25 77
25 79
25 80
25 81
25 82
25 83
25 84
25 87
25 88
25 90
25 92
25 93
25 94
25 95
25 97
25 98
26 30
26 31
26 32
26 34
26 36
26 38
26 39
26 40
26 42
26 46
26 48
26 49
26 51
26 52
26 53
26 54
26 56
26 60
26 61
26 62
26 63
26 64
26 66
26 69
26 72
26 73
26 74
26 75
26 76
26 77
26 78
26 79
26 80
26 82
26 83
26 85
26 89
26 90
26 91
26 92
26 94
26 95
26 96
26 99
27 29
27 30
27 31
27 33
27 34
27 36
27 37
27 38
27 40
27 41
27 43
27 44
27 46
27 50
27 52
27 53
27 56
27 57
27 58
27 60
27 61
27 62
27 63
27 64
27 67
27 68
27 72
27 73
27 74
27 75
27 76
27 78
27 80
27 81
27 83
27 84
27 86
27 87
27 88
27 89
27 92
27 93
27 94
27 95
27 96
27 97
28 31
28 32
28 34
28 35
28 36
28 38
28 40
28 41
28 44
28 45
28 46
28 49
28 51
28 52
28 54
28 55
28 56
28 57
28 58
28 59
28 60
28 61
28 63
28 64
28 65
28 67
28 69
28 70
28 71
28 72
28 73
28 74
28 77
28 79
28 83
28 84
28 85
28 86
28 88
28 89
28 91
28 92
28 93
28 94
28 95
28 97
28 98
29 30
29 32
29 35
29 36
29 38
29 39
29 40
29 41
29 42
29 44
29 47
29 49
29 50
29 58
29 60
29 61
29 62
29 63
29 64
29 65
29 66
29 67
29 68
29 69
29 70
29 71
29 73
29 75
29 78
29 81
29 82
29 84
29 86
29 87
29 88
29 89
29 90
29 91
29 92
29 94
29 96
29 98
29 99
30 31
30 32
30 34
30 38
30 41
30 42
30 45
30 47
30 50
30 51
30 54
30 56
30 58
30 61
30 63
30 64
30 65
30 66
30 68
30 69
30 70
30 72
30 74
30 76
30 78
30 80
30 82
30 84
30 85
30 86
30 87
30 92
30 94
30 97
30 99
31 32
31 33
31 34
31 36
31 37
31 38
31 41
31 42
31 43
31 44
31 45
31 47
31 48
31 50
31 51
31 52
31 54
31 56
31 60
31 62
31 63
31 64
31 66
31 67
31 68
31 69
31 71
31 72
31 74
31 75
31 76
31 77
31 79
31 83
31 84
31 86
31 88
31 92
31 93
31 94
31 96
31 99
32 33
32 35
32 37
32 38
32 40
32 41
32 43
32 44
32 47
32 48
32 49
32 52
32 53
32 56
32 57
32 58
32 59
32 60
32 63
32 64
32 65
32 68
32 69
32 72
32 75
32 76
32 77
32 79
32 80
32 82
32 83
32 84
32 86
32 88
32 89
32 91
32 92
32 93
32 97
32 98
33 35
33 36
33 37
33 39
33 47
33 48
33 50
33 51
33 57
33 58
33 60
33 61
33 62
33 63
33 64
33 65
33 67
33 68
33 71
33 74
33 75
33 78
33 83
33 84
33 86
33 87
33 88
33 89
33 90
33 93
33 96
33 97
33 99
34 35
34 37
34 39
34 40
34 43
34 45
34 48
34 50
34 51
34 52
34 53
34 54
34 55
34 56
34 57
34 58
34 59
34 61
34 62
34 64
34 67
34 68
34 70
34 72
34 73
34 74
34 77
34 79
34 80
34 81
34 83
34 85
34 86
34 90
34 96
34 98
35 36
35 37
35 38
35 39
35 41
35 42
35 43
35 45
35 49
35 50
35 51
35 52
35 53
35 54
35 55
35 56
35 57
35 59
35 60
35 62
35 63
35 65
35 66
35 67
35 70
35 72
35 74
35 76
35 77
35 78
35 79
35 80
35 83
35 84
35 85
35 86
35 88
35 91
35 93
35 94
35 95
35 96
35 97
35 98
36 39
36 40
36 41
36 42
36 43
36 45
36 46
36 48
36 50
36 51
36 52
36 53
36 54
36 55
36 56
36 57
36 58
36 59
36 60
36 61
36 62
36 65
36 66
36 68
36 70
36 71
36 74
36 76
36 78
36 83
36 84
36 88
36 89
36 90
36 95
36 97
36 98
36 99
37 38
37 39
37 40
37 41
37 46
37 52
37 53
37 58
37 62
37 63
37 66
37 67
37 68
37 71
37 72
37 73
37 74
37 76
37 79
37 80
37 81
37 83
37 84
37 85
37 87
37 88
37 90
37 91
37 92
37 95
37 96
37 97
37 98
37 99
38 39
38 40
38 41
38 42
38 43
38 44
38 45
38 48
38 49
38 52
38 55
38 56
38 57
38 58
38 59
38 63
38 66
38 69
38 70
38 71
38 72
38 73
38 74
38 76
38 78
38 81
38 82
38 83
38 84
38 86
38 87
38 88
38 89
38 93
39 43
39 47
39 48
39 49
39 50
39 51
39 54
39 55
39 56
39 59
39 60
39 62
39 63
39 65
39 67
39 68
39 69
39 71
39 72
39 73
39 74
39 77
39 79
39 82
39 85
39 86
39 87
39 89
39 90
39 91
39 94
39 97
39 98
39 99
40 42
40 43
40 45
40 48
40 50
40 52
40 54
40 55
40 57
40 58
40 61
40 63
40 64
40 65
40 68
40 69
40 71
40 72
40 74
40 75
40 76
40 77
40 80
40 81
40 82
40 84
40 85
40 86
40 89
40 90
40 94
40 95
40 96
40 97
40 98
41 42
41 47
41 49
41 50
41 52
41 54
41 64
41 65
41 67
41 68
41 69
41 71
41 72
41 74
41 77
41 80
41 81
41 82
41 83
41 84
41 86
41 87
41 89
41 91
41 92
41 94
41 95
41 96
41 97
41 98
42 43
42 44
42 47
42 48
42 51
42 53
42 54
42 56
42 57
42 58
42 59
42 61
42 62
42 63
42 64
42 68
42 69
42 71
42 72
42 73
42 74
42 75
42 77
42 78
42 79
42 80
42 81
42 82
42 84
42 85
42 86
42 88
42 90
42 91
42 93
42 94
42 96
42 97
42 98
43 44
43 45
43 48
43 49
43 51
43 52
43 53
43 57
43 59
43 60
43 62
43 63
43 65
43 66
43 68
43 70
43 72
43 73
43 74
43 75
43 76
43 77
43 79
43 81
43 83
43 84
43 85
43 87
43 88
43 89
43 90
43 92
43 94
43 96
43 97
43 98
43 99
44 45
44 46
44 47
44 48
44 49
44 53
44 54
44 55
44 56
44 57
44 58
44 61
44 62
44 64
44 65
44 67
44 68
44 70
44 73
44 74
44 77
44 78
44 79
44 81
44 82
44 84
44 85
44 86
44 87
44 88
44 89
44 90
44 91
44 92
44 93
44 94
44 96
44 97
44 98
44 99
45 46
45 51
45 52
45 56
45 59
45 60
45 62
45 64
45 65
45 67
45 69
45 70
45 72
45 73
45 75
45 77
45 78
45 79
45 80
45 81
45 83
45 86
45 87
45 88
45 89
45 93
45 96
46 47
46 48
46 49
46 50
46 51
46 52
46 53
46 54
46 55
46 57
46 58
46 59
46 63
46 64
46 65
46 66
46 67
46 68
46 72
46 74
46 76
46 78
46 80
46 82
46 83
46 85
46 86
46 88
46 89
46 90
46 92
46 94
46 95
46 96
46 97
46 99
47 48
47 50
47 52
47 54
47 55
47 57
47 58
47 60
47 62
47 63
47 64
47 66
47 68
47 69
47 71
47 75
47 76
47 78
47 79
47 80
47 81
47 82
47 83
47 84
47 87
47 88
47 90
47 91
47 93
47 95
47 96
47 99
48 49
48 51
48 53
48 54
48 56
48 58
48 59
48 68
48 69
48 71
48 72
48 73
48 74
48 75
48 77
48 78
48 80
48 82
48 83
48 86
48 87
48 89
48 92
48 94
48 95
48 98
49 51
49 52
49 53
49 54
49 55
49 58
49 62
49 63
49 65
49 69
49 71
49 72
49 74
49 75
49 81
49 84
49 85
49 86
49 87
49 91
49 93
49 94
49 99
50 52
50 53
50 55
50 56
50 58
50 60
50 61
50 62
50 63
50 68
50 69
50 70
50 71
50 72
50 73
50 75
50 76
50 78
50 82
50 83
50 84
50 85
50 86
50 87
50 89
50 90
50 91
50 92
50 93
50 94
50 95
50 96
50 97
50 99
51 52
51 54
51 57
51 60
51 61
51 62
51 63
51 64
51 67
51 68
51 69
51 73
51 74
51 76
51 77
51 78
51 83
51 85
51 87
51 88
51 89
51 91
51 93
51 94
51 95
51 97
51 98
52 53
52 55
52 56
52 57
52 58
52 59
52 60
52 61
52 62
52 64
52 65
52 66
52 67
52 69
52 70
52 71
52 72
52 76
52 77
52 78
52 79
52 82
52 83
52 86
52 89
52 91
52 93
52 94
52 95
52 96
52 97
53 54
53 55
53 56
53 57
53 60
53 65
53 67
53 68
53 69
53 70
53 71
53 73
53 74
53 75
53 77
53 79
53 80
53 82
53 83
53 84
53 85
53 86
53 87
53 91
53 92
53 93
53 94
53 96
53 97
53 99
54 55
54 56
54 61
54 62
54 63
54 64
54 65
54 66
54 67
54 69
54 70
54 71
54 72
54 74
54 75
54 76
54 78
54 85
54 86
54 87
54 93
54 94
54 97
54 99
55 56
55 58
55 62
55 64
55 66
55 67
55 68
55 69
55 72
55 73
55 74
55 75
55 78
55 79
55 80
55 81
55 82
55 84
55 85
55 86
55 88
55 90
55 91
55 92
55 95
55 97
55 99
56 58
56 60
56 61
56 62
56 63
56 64
56 65
56 66
56 67
56 68
56 69
56 72
56 73
56 74
56 75
56 76
56 77
56 78
56 79
56 82
56 83
56 84
56 87
56 92
56 93
56 94
56 95
56 97
56 98
57 58
57 59
57 61
57 63
57 65
57 69
57 70
57 71
57 72
57 73
57 78
57 79
57 81
57 82
57 83
57 85
57 86
57 87
57 89
57 90
57 91
57 94
57 97
57 99
58 59
58 60
58 62
58 63
58 64
58 65
58 66
58 67
58 68
58 69
58 71
58 72
58 73
58 76
58 77
58 78
58 79
58 80
58 82
58 83
58 84
58 85
58 86
58 87
58 88
58 89
58 90
58 94
58 95
58 96
58 99
59 60
59 61
59 62
59 63
59 64
59 65
59 66
59 71
59 75
59 76
59 77
59 78
59 79
59 81
59 82
59 83
59 85
59 87
59 89
59 90
59 93
59 95
59 97
60 62
60 63
60 64
60 65
60 67
60 70
60 71
60 72
60 75
60 76
60 78
60 79
60 83
60 85
60 86
60 87
60 90
60 91
60 92
60 94
60 96
60 97
60 99
61 63
61 65
61 66
61 70
61 71
61 72
61 73
61 74
61 77
61 85
61 86
61 87
61 88
61 89
61 90
61 94
61 97
61 98
62 63
62 65
62 67
62 68
62 69
62 70
62 71
62 73
62 75
62 76
62 77
62 78
62 80
62 81
62 82
62 85
62 87
62 89
62 90
62 92
62 94
62 97
62 99
63 64
63 65
63 66
63 67
63 70
63 72
63 74
63 76
63 78
63 79
63 81
63 84
63 85
63 86
63 87
63 88
63 89
63 90
63 91
63 92
63 93
63 94
63 96
63 97
63 98
63 99
64 65
64 66
64 69
64 70
64 71
64 72
64 73
64 76
64 77
64 79
64 80
64 81
64 82
64 84
64 85
64 86
64 87
64 89
64 90
64 91
64 92
64 93
64 96
64 99
65 67
65 69
65 70
65 72
65 73
65 77
65 78
65 79
65 80
65 81
65 82
65 83
65 84
65 90
65 91
65 93
65 95
65 96
65 97
65 99
66 69
66 70
66 71
66 74
66 75
66 76
66 77
66 79
66 80
66 82
66 83
66 85
66 88
66 94
66 95
66 96
66 97
66 99
67 68
67 69
67 70
67 72
67 74
67 76
67 81
67 82
67 83
67 85
67 86
67 87
67 89
67 91
67 93
67 95
67 97
67 98
67 99
68 70
68 72
68 74
68 75
68 79
68 80
68 82
68 86
68 88
68 89
68 90
68 92
68 93
68 94
68 96
68 98
68 99
69 70
69 72
69 74
69 75
69 76
69 77
69 78
69 79
69 81
69 84
69 85
69 86
69 87
69 88
69 89
69 90
69 91
69 97
69 98
69 99
70 75
70 80
70 81
70 82
70 85
70 88
70 89
70 90
70 92
70 93
70 94
70 96
70 98
70 99
71 77
71 78
71 80
71 81
71 85
71 86
71 88
71 90
71 93
71 94
71 96
71 97
71 98
71 99
72 75
72 76
72 77
72 79
72 81
72 82
72 84
72 85
72 86
72 89
72 92
72 93
72 96
72 98
72 99
73 74
73 75
73 76
73 77
73 78
73 79
73 80
73 81
73 83
73 84
73 86
73 87
73 89
73 93
73 95
73 96
73 97
73 98
73 99
74 77
74 78
74 79
74 80
74 83
74 85
74 86
74 87
74 88
74 89
74 90
74 91
74 93
74 94
74 96
74 98
74 99
75 77
75 80
75 81
75 82
75 83
75 84
75 85
75 88
75 90
75 92
75 93
75 96
75 97
75 98
76 78
76 80
76 82
76 84
76 85
76 86
76 88
76 89
76 93
76 94
76 95
76 96
76 97
76 98
77 78
77 79
77 80
77 81
77 82
77 83
77 84
77 86
77 87
77 88
77 93
77 97
77 98
77 99
78 79
78 81
78 83
78 84
78 87
78 88
78 90
78 91
78 93
78 95
78 96
78 99
79 80
79 83
79 84
79 88
79 89
79 92
79 93
79 94
79 95
79 98
79 99
80 81
80 84
80 85
80 88
80 90
80 91
80 92
80 94
80 95
80 96
80 97
80 98
81 83
81 85
81 86
81 87
81 88
81 89
81 91
81 92
81 93
81 94
81 96
81 98
81 99
82 83
82 84
82 86
82 88
82 89
82 90
82 91
82 92
82 93
82 94
82 96
82 97
82 98
82 99
83 87
83 88
83 90
83 91
83 92
83 93
83 94
83 95
83 96
83 97
83 99
84 85
84 94
84 95
84 98
84 99
85 86
85 87
85 88
85 89
85 90
85 92
85 93
85 94
85 95
85 96
85 98
86 87
86 88
86 92
86 93
86 95
86 97
86 98
87 90
87 91
87 95
87 97
87 98
88 89
88 91
88 92
88 93
88 95
88 97
88 98
89 90
89 91
89 93
89 94
89 96
90 91
90 92
90 93
90 94
90 95
90 96
90 98
90 99
91 93
91 96
91 97
91 98
92 93
92 94
92 95
92 98
92 99
93 94
93 95
93 96
93 97
94 95
94 97
94 98
95 96
95 99
97 99
98 99
31 10 58 88 19 53 91 44 87 74 36 82 59 78 17 96 57 77 62 37 80 32 4 15 21
94 33 46 64 65 42 41 83 93 99 6 60 20 72 22 56 48 51 55 54 27 40 81 13 11
71 14 7 86 92 16 38 28 18 5 97 50 0 49 84 39 75 3 9 89 95 8 61 98 66
23 1 85 47 12 79 2 26 24 69 90 43 25 76 67 73 68 29 30 52 45 70 34 35 63
